#p B3LYP/6-31+g** opt out=wfn

floruro di litio

0 1
li
 f   1 fli2    
 
fli2        1.685600

LiF.wfn
 
 
