%chk=tmp
%mem=100MB

#p scan

Hydrogen Molecule

0 1
H
H 1 d

d 0.5 40 0.025

