#p B3LYP/6-31+g** opt out=wfn

ethyne

0 1
C1
C2 1 d1
H3 2 d2 1 a1
H4 1 d3 2 a2 3 t1


d1 = 1.4
d2 = 1.
d3 = 1.
a1 = 180.
a2 = 180.
t1= 180.

ethyne.wfn




