%chk=tmp
#p B3LYP/6-31g** opt out=wfn

hydrogen molecule

0 1
h
h   1 hh2     
 
hh2         1.008000

molhydr.wfn



 
