#p B3LYP/6-31+g** opt out=wfn

hydrogen fluoride

0 1
h
 f   1 fh2     
 
fh2         1.008000

hf.wfn
 
 
