%chk=tmp
%mem=100MB

#p B3LYP/6-31+g(d,p) opt freq pop=full gfinput

Methane molecule

0 1
C
H1 1 d1
H2 1 d1 2 a1
H3 1 d1 2 a1 3 t1
H4 1 d1 2 a1 3 t2

d1 = 1.25
a1 = 115.
t1 = 120.
t2 = 240.

                                                                                                                                                                                                                

