%chk=tmp 
%mem=350Gb 
%NprocShared=48

#p B3LYP/6-31+g(d,p) opt(internal) nosym freq NMR=GIAO

TMS

0 1
 si
 c    1 csi2
 h    2 hc3         1 hcsi3
 h    2 hc4         1 hcsi4         3 dih4
 h    2 hc5         1 hcsi5         3 dih5
 c    1 csi6        2 csic6         3 dih6
 h    6 hc7         1 hcsi7         2 dih7
 h    6 hc8         1 hcsi8         7 dih8
 h    6 hc9         1 hcsi9         7 dih9
 c    1 csi10       2 csic10        3 dih10
 h   10 hc11        1 hcsi11        2 dih11
 h   10 hc12        1 hcsi12       11 dih12
 h   10 hc13        1 hcsi13       11 dih13
 c    1 csi14       2 csic14        3 dih14
 h   14 hc15        1 hcsi15        2 dih15
 h   14 hc16        1 hcsi16       15 dih16
 h   14 hc17        1 hcsi17       15 dih17

csi2        1.850000
hc3         1.089000
hcsi3       109.471
hc4         1.089000
hcsi4       109.471
dih4        240.000
hc5         1.089000
hcsi5       109.471
dih5        120.000
csi6        1.850000
csic6       109.471
dih6        180.000
hc7         1.089000
hcsi7       109.471
dih7        180.000
hc8         1.089000
hcsi8       109.471
dih8        120.000
hc9         1.089000
hcsi9       109.471
dih9        240.000
csi10       1.850000
csic10      109.471
dih10       300.000
hc11        1.089000
hcsi11      109.471
dih11       180.000
hc12        1.089000
hcsi12      109.471
dih12       120.000
hc13        1.089000
hcsi13      109.471
dih13       240.000
csi14       1.850000
csic14      109.471
dih14        60.000
hc15        1.089000
hcsi15      109.471
dih15       180.000
hc16        1.089000
hcsi16      109.471
dih16       120.000
hc17        1.089000
hcsi17      109.471
dih17       240.000
