%chk=tmp
#p B3LYP/6-31+g(d,p) opt freq

Hydrogen Atom

0 2
H

