%chk=tmp
%mem=100MB
#p B3LYP/6-31+g(d,p) opt=ModRedun freq

Hydrogen Molecule

0 1
H
H 1 d

d=2.00 

1 2 F



